牛客/2019牛客暑期多校训练营/数据/9_D_Knapsack Cryptosystem/11.in
36 1427592340263574
113607793573528 3689229359582 11067688078746 22135376157492 66406128472476 147569174383280 83058837344589 100849021076973 18855560829862 95047706995227 130995646474349 87539219151255 141586983015100 31755340149461 61478433724676 96486010806085 64809534709053 135299140829457 25062316819587 166809600531484 26430691502167 55959273846055 86322354567968 165634230912082 155588991905550 90935134256400 80103860887230 38140651619234 130770449672349 93596823481886 77352411837093 131322815130492 115332920623420 6238212663496 131993209487557 97006261455409
